certificates/rado_a11_c270_N39.cnf
c Rad2 upper bound instance: x1 + 11*x2 - x3 = 270, interval [1,39]
p cnf 39 270
1 6 25 0
-1 -6 -25 0
1 17 26 0
-1 -17 -26 0
1 27 28 0
-1 -27 -28 0
1 28 39 0
-1 -28 -39 0
2 7 25 0
-2 -7 -25 0
2 18 26 0
-2 -18 -26 0
2 27 29 0
-2 -27 -29 0
3 8 25 0
-3 -8 -25 0
3 19 26 0
-3 -19 -26 0
3 27 30 0
-3 -27 -30 0
4 9 25 0
-4 -9 -25 0
4 20 26 0
-4 -20 -26 0
4 27 31 0
-4 -27 -31 0
5 10 25 0
-5 -10 -25 0
5 21 26 0
-5 -21 -26 0
5 27 32 0
-5 -27 -32 0
6 11 25 0
-6 -11 -25 0
6 22 26 0
-6 -22 -26 0
6 27 33 0
-6 -27 -33 0
1 7 24 0
-1 -7 -24 0
7 12 25 0
-7 -12 -25 0
7 23 26 0
-7 -23 -26 0
7 27 34 0
-7 -27 -34 0
2 8 24 0
-2 -8 -24 0
8 13 25 0
-8 -13 -25 0
8 24 26 0
-8 -24 -26 0
8 27 35 0
-8 -27 -35 0
3 9 24 0
-3 -9 -24 0
9 14 25 0
-9 -14 -25 0
9 25 26 0
-9 -25 -26 0
9 27 36 0
-9 -27 -36 0
4 10 24 0
-4 -10 -24 0
10 15 25 0
-10 -15 -25 0
10 26 0
-10 -26 0
10 27 37 0
-10 -27 -37 0
5 11 24 0
-5 -11 -24 0
11 16 25 0
-11 -16 -25 0
11 26 27 0
-11 -26 -27 0
11 27 38 0
-11 -27 -38 0
6 12 24 0
-6 -12 -24 0
12 17 25 0
-12 -17 -25 0
12 26 28 0
-12 -26 -28 0
12 27 39 0
-12 -27 -39 0
7 13 24 0
-7 -13 -24 0
13 18 25 0
-13 -18 -25 0
13 26 29 0
-13 -26 -29 0
8 14 24 0
-8 -14 -24 0
14 19 25 0
-14 -19 -25 0
14 26 30 0
-14 -26 -30 0
9 15 24 0
-9 -15 -24 0
15 20 25 0
-15 -20 -25 0
15 26 31 0
-15 -26 -31 0
10 16 24 0
-10 -16 -24 0
16 21 25 0
-16 -21 -25 0
16 26 32 0
-16 -26 -32 0
11 17 24 0
-11 -17 -24 0
17 22 25 0
-17 -22 -25 0
17 26 33 0
-17 -26 -33 0
1 18 23 0
-1 -18 -23 0
12 18 24 0
-12 -18 -24 0
18 23 25 0
-18 -23 -25 0
18 26 34 0
-18 -26 -34 0
2 19 23 0
-2 -19 -23 0
13 19 24 0
-13 -19 -24 0
19 24 25 0
-19 -24 -25 0
19 26 35 0
-19 -26 -35 0
3 20 23 0
-3 -20 -23 0
14 20 24 0
-14 -20 -24 0
20 25 0
-20 -25 0
20 26 36 0
-20 -26 -36 0
4 21 23 0
-4 -21 -23 0
15 21 24 0
-15 -21 -24 0
21 25 26 0
-21 -25 -26 0
21 26 37 0
-21 -26 -37 0
5 22 23 0
-5 -22 -23 0
16 22 24 0
-16 -22 -24 0
22 25 27 0
-22 -25 -27 0
22 26 38 0
-22 -26 -38 0
6 23 0
-6 -23 0
17 23 24 0
-17 -23 -24 0
23 25 28 0
-23 -25 -28 0
23 26 39 0
-23 -26 -39 0
7 23 24 0
-7 -23 -24 0
18 24 0
-18 -24 0
24 25 29 0
-24 -25 -29 0
8 23 25 0
-8 -23 -25 0
25 30 0
-25 -30 0
9 23 26 0
-9 -23 -26 0
20 24 26 0
-20 -24 -26 0
25 26 31 0
-25 -26 -31 0
10 23 27 0
-10 -23 -27 0
21 24 27 0
-21 -24 -27 0
25 27 32 0
-25 -27 -32 0
11 23 28 0
-11 -23 -28 0
22 24 28 0
-22 -24 -28 0
25 28 33 0
-25 -28 -33 0
1 22 29 0
-1 -22 -29 0
12 23 29 0
-12 -23 -29 0
23 24 29 0
-23 -24 -29 0
25 29 34 0
-25 -29 -34 0
2 22 30 0
-2 -22 -30 0
13 23 30 0
-13 -23 -30 0
24 30 0
-24 -30 0
25 30 35 0
-25 -30 -35 0
3 22 31 0
-3 -22 -31 0
14 23 31 0
-14 -23 -31 0
24 25 31 0
-24 -25 -31 0
25 31 36 0
-25 -31 -36 0
4 22 32 0
-4 -22 -32 0
15 23 32 0
-15 -23 -32 0
24 26 32 0
-24 -26 -32 0
25 32 37 0
-25 -32 -37 0
5 22 33 0
-5 -22 -33 0
16 23 33 0
-16 -23 -33 0
24 27 33 0
-24 -27 -33 0
25 33 38 0
-25 -33 -38 0
6 22 34 0
-6 -22 -34 0
17 23 34 0
-17 -23 -34 0
24 28 34 0
-24 -28 -34 0
25 34 39 0
-25 -34 -39 0
7 22 35 0
-7 -22 -35 0
18 23 35 0
-18 -23 -35 0
24 29 35 0
-24 -29 -35 0
8 22 36 0
-8 -22 -36 0
19 23 36 0
-19 -23 -36 0
24 30 36 0
-24 -30 -36 0
9 22 37 0
-9 -22 -37 0
20 23 37 0
-20 -23 -37 0
24 31 37 0
-24 -31 -37 0
10 22 38 0
-10 -22 -38 0
21 23 38 0
-21 -23 -38 0
24 32 38 0
-24 -32 -38 0
11 22 39 0
-11 -22 -39 0
22 23 39 0
-22 -23 -39 0
24 33 39 0
-24 -33 -39 0
