certificates/rado_a11_c270_N39.drat
25 -36 -37 -38 0
-25 -39 0
-27 -37 25 0
-37 -38 25 0
d -36 -37 25 -38 0
27 -38 25 0
-38 25 0
d 27 -38 25 0
d -37 -38 25 0
-27 -39 0
-39 0
24 -12 0
27 0
-24 0
18 0
30 0
33 0
-12 0
-25 0
-3 0
-6 0
7 0
0
